p cnf 386 460
3 6 11 21 22 0
3 6 11 21 -22 0
3 6 11 -21 23 0
3 6 11 -21 -23 0
4 13 5 24 25 0
4 13 5 24 -25 0
4 13 5 -24 26 0
4 13 5 -24 -26 0
-7 6 -2 27 28 0
-7 6 -2 27 -28 0
-7 6 -2 -27 29 0
-7 6 -2 -27 -29 0
-16 10 -20 30 31 0
-16 10 -20 30 -31 0
-16 10 -20 -30 32 0
-16 10 -20 -30 -32 0
5 11 -16 33 34 0
5 11 -16 33 -34 0
5 11 -16 -33 35 0
5 11 -16 -33 -35 0
-5 6 3 36 37 0
-5 6 3 36 -37 0
-5 6 3 -36 38 0
-5 6 3 -36 -38 0
16 1 -11 39 40 0
16 1 -11 39 -40 0
16 1 -11 -39 41 0
16 1 -11 -39 -41 0
-11 8 18 42 43 0
-11 8 18 42 -43 0
-11 8 18 -42 44 0
-11 8 18 -42 -44 0
7 -17 -14 45 46 0
7 -17 -14 45 -46 0
7 -17 -14 -45 47 0
7 -17 -14 -45 -47 0
-1 -17 10 48 49 0
-1 -17 10 48 -49 0
-1 -17 10 -48 50 0
-1 -17 10 -48 -50 0
8 -3 15 51 52 0
8 -3 15 51 -52 0
8 -3 15 -51 53 0
8 -3 15 -51 -53 0
17 -11 5 54 55 0
17 -11 5 54 -55 0
17 -11 5 -54 56 0
17 -11 5 -54 -56 0
-18 -6 -15 57 58 0
-18 -6 -15 57 -58 0
-18 -6 -15 -57 59 0
-18 -6 -15 -57 -59 0
-19 -6 12 60 61 0
-19 -6 12 60 -61 0
-19 -6 12 -60 62 0
-19 -6 12 -60 -62 0
11 13 -1 63 64 0
11 13 -1 63 -64 0
11 13 -1 -63 65 0
11 13 -1 -63 -65 0
10 16 -3 66 67 0
10 16 -3 66 -67 0
10 16 -3 -66 68 0
10 16 -3 -66 -68 0
-9 2 8 69 70 0
-9 2 8 69 -70 0
-9 2 8 -69 71 0
-9 2 8 -69 -71 0
-20 6 8 72 73 0
-20 6 8 72 -73 0
-20 6 8 -72 74 0
-20 6 8 -72 -74 0
10 -20 11 75 76 0
10 -20 11 75 -76 0
10 -20 11 -75 77 0
10 -20 11 -75 -77 0
6 4 16 78 79 0
6 4 16 78 -79 0
6 4 16 -78 80 0
6 4 16 -78 -80 0
7 -14 20 81 82 0
7 -14 20 81 -82 0
7 -14 20 -81 83 0
7 -14 20 -81 -83 0
-6 -7 -13 84 85 0
-6 -7 -13 84 -85 0
-6 -7 -13 -84 86 0
-6 -7 -13 -84 -86 0
-19 20 2 87 88 0
-19 20 2 87 -88 0
-19 20 2 -87 89 0
-19 20 2 -87 -89 0
4 -1 18 90 91 0
4 -1 18 90 -91 0
4 -1 18 -90 92 0
4 -1 18 -90 -92 0
-11 -17 -16 93 94 0
-11 -17 -16 93 -94 0
-11 -17 -16 -93 95 0
-11 -17 -16 -93 -95 0
-4 -13 18 96 97 0
-4 -13 18 96 -97 0
-4 -13 18 -96 98 0
-4 -13 18 -96 -98 0
18 -17 8 99 100 0
18 -17 8 99 -100 0
18 -17 8 -99 101 0
18 -17 8 -99 -101 0
5 15 1 102 103 0
5 15 1 102 -103 0
5 15 1 -102 104 0
5 15 1 -102 -104 0
-12 -2 10 105 106 0
-12 -2 10 105 -106 0
-12 -2 10 -105 107 0
-12 -2 10 -105 -107 0
8 -11 5 108 109 0
8 -11 5 108 -109 0
8 -11 5 -108 110 0
8 -11 5 -108 -110 0
9 -3 2 111 112 0
9 -3 2 111 -112 0
9 -3 2 -111 113 0
9 -3 2 -111 -113 0
18 9 -11 114 115 0
18 9 -11 114 -115 0
18 9 -11 -114 116 0
18 9 -11 -114 -116 0
-12 19 -13 117 118 0
-12 19 -13 117 -118 0
-12 19 -13 -117 119 0
-12 19 -13 -117 -119 0
-9 -18 16 120 121 0
-9 -18 16 120 -121 0
-9 -18 16 -120 122 0
-9 -18 16 -120 -122 0
8 -1 -12 123 124 0
8 -1 -12 123 -124 0
8 -1 -12 -123 125 0
8 -1 -12 -123 -125 0
-14 -17 -6 126 127 0
-14 -17 -6 126 -127 0
-14 -17 -6 -126 128 0
-14 -17 -6 -126 -128 0
-10 -19 -2 129 130 0
-10 -19 -2 129 -130 0
-10 -19 -2 -129 131 0
-10 -19 -2 -129 -131 0
-8 3 -16 132 133 0
-8 3 -16 132 -133 0
-8 3 -16 -132 134 0
-8 3 -16 -132 -134 0
-13 -14 -1 135 136 0
-13 -14 -1 135 -136 0
-13 -14 -1 -135 137 0
-13 -14 -1 -135 -137 0
-19 -5 8 138 139 0
-19 -5 8 138 -139 0
-19 -5 8 -138 140 0
-19 -5 8 -138 -140 0
-6 -4 -3 141 142 0
-6 -4 -3 141 -142 0
-6 -4 -3 -141 143 0
-6 -4 -3 -141 -143 0
-16 15 -7 144 145 0
-16 15 -7 144 -145 0
-16 15 -7 -144 146 0
-16 15 -7 -144 -146 0
-15 -17 10 147 148 0
-15 -17 10 147 -148 0
-15 -17 10 -147 149 0
-15 -17 10 -147 -149 0
-7 14 -4 150 151 0
-7 14 -4 150 -151 0
-7 14 -4 -150 152 0
-7 14 -4 -150 -152 0
18 12 4 153 154 0
18 12 4 153 -154 0
18 12 4 -153 155 0
18 12 4 -153 -155 0
-16 13 11 156 157 0
-16 13 11 156 -157 0
-16 13 11 -156 158 0
-16 13 11 -156 -158 0
-9 -6 18 159 160 0
-9 -6 18 159 -160 0
-9 -6 18 -159 161 0
-9 -6 18 -159 -161 0
-9 12 3 162 163 0
-9 12 3 162 -163 0
-9 12 3 -162 164 0
-9 12 3 -162 -164 0
1 -12 16 165 166 0
1 -12 16 165 -166 0
1 -12 16 -165 167 0
1 -12 16 -165 -167 0
1 -9 15 168 169 0
1 -9 15 168 -169 0
1 -9 15 -168 170 0
1 -9 15 -168 -170 0
12 14 17 171 172 0
12 14 17 171 -172 0
12 14 17 -171 173 0
12 14 17 -171 -173 0
7 15 12 174 175 0
7 15 12 174 -175 0
7 15 12 -174 176 0
7 15 12 -174 -176 0
-11 -18 20 177 178 0
-11 -18 20 177 -178 0
-11 -18 20 -177 179 0
-11 -18 20 -177 -179 0
-17 16 -13 180 181 0
-17 16 -13 180 -181 0
-17 16 -13 -180 182 0
-17 16 -13 -180 -182 0
20 -16 -10 183 184 0
20 -16 -10 183 -184 0
20 -16 -10 -183 185 0
20 -16 -10 -183 -185 0
-16 -7 -10 186 187 0
-16 -7 -10 186 -187 0
-16 -7 -10 -186 188 0
-16 -7 -10 -186 -188 0
5 -8 -7 189 190 0
5 -8 -7 189 -190 0
5 -8 -7 -189 191 0
5 -8 -7 -189 -191 0
-20 15 16 192 193 0
-20 15 16 192 -193 0
-20 15 16 -192 194 0
-20 15 16 -192 -194 0
9 4 17 195 196 0
9 4 17 195 -196 0
9 4 17 -195 197 0
9 4 17 -195 -197 0
16 3 -18 198 199 0
16 3 -18 198 -199 0
16 3 -18 -198 200 0
16 3 -18 -198 -200 0
20 3 -18 201 202 0
20 3 -18 201 -202 0
20 3 -18 -201 203 0
20 3 -18 -201 -203 0
-5 -6 -19 204 205 0
-5 -6 -19 204 -205 0
-5 -6 -19 -204 206 0
-5 -6 -19 -204 -206 0
8 14 -9 207 208 0
8 14 -9 207 -208 0
8 14 -9 -207 209 0
8 14 -9 -207 -209 0
-4 -15 2 210 211 0
-4 -15 2 210 -211 0
-4 -15 2 -210 212 0
-4 -15 2 -210 -212 0
3 -12 -7 213 214 0
3 -12 -7 213 -214 0
3 -12 -7 -213 215 0
3 -12 -7 -213 -215 0
12 17 -16 216 217 0
12 17 -16 216 -217 0
12 17 -16 -216 218 0
12 17 -16 -216 -218 0
-1 11 -3 219 220 0
-1 11 -3 219 -220 0
-1 11 -3 -219 221 0
-1 11 -3 -219 -221 0
14 -11 -10 222 223 0
14 -11 -10 222 -223 0
14 -11 -10 -222 224 0
14 -11 -10 -222 -224 0
20 -17 11 225 226 0
20 -17 11 225 -226 0
20 -17 11 -225 227 0
20 -17 11 -225 -227 0
-6 -19 -17 228 229 0
-6 -19 -17 228 -229 0
-6 -19 -17 -228 230 0
-6 -19 -17 -228 -230 0
-6 -11 -2 231 232 0
-6 -11 -2 231 -232 0
-6 -11 -2 -231 233 0
-6 -11 -2 -231 -233 0
-20 7 -1 234 235 0
-20 7 -1 234 -235 0
-20 7 -1 -234 236 0
-20 7 -1 -234 -236 0
-12 -20 7 237 238 0
-12 -20 7 237 -238 0
-12 -20 7 -237 239 0
-12 -20 7 -237 -239 0
-13 9 -12 240 241 0
-13 9 -12 240 -241 0
-13 9 -12 -240 242 0
-13 9 -12 -240 -242 0
-20 3 14 243 244 0
-20 3 14 243 -244 0
-20 3 14 -243 245 0
-20 3 14 -243 -245 0
-18 -12 -19 246 247 0
-18 -12 -19 246 -247 0
-18 -12 -19 -246 248 0
-18 -12 -19 -246 -248 0
11 -1 -18 249 250 0
11 -1 -18 249 -250 0
11 -1 -18 -249 251 0
11 -1 -18 -249 -251 0
20 10 13 252 253 0
20 10 13 252 -253 0
20 10 13 -252 254 0
20 10 13 -252 -254 0
-11 -14 -19 255 256 0
-11 -14 -19 255 -256 0
-11 -14 -19 -255 257 0
-11 -14 -19 -255 -257 0
-17 -5 11 258 259 0
-17 -5 11 258 -259 0
-17 -5 11 -258 260 0
-17 -5 11 -258 -260 0
-9 10 7 261 262 0
-9 10 7 261 -262 0
-9 10 7 -261 263 0
-9 10 7 -261 -263 0
-10 -5 -2 264 265 0
-10 -5 -2 264 -265 0
-10 -5 -2 -264 266 0
-10 -5 -2 -264 -266 0
17 5 -15 267 268 0
17 5 -15 267 -268 0
17 5 -15 -267 269 0
17 5 -15 -267 -269 0
-14 -17 -10 270 271 0
-14 -17 -10 270 -271 0
-14 -17 -10 -270 272 0
-14 -17 -10 -270 -272 0
11 9 -4 273 274 0
11 9 -4 273 -274 0
11 9 -4 -273 275 0
11 9 -4 -273 -275 0
-9 -16 6 276 277 0
-9 -16 6 276 -277 0
-9 -16 6 -276 278 0
-9 -16 6 -276 -278 0
20 5 14 279 280 0
20 5 14 279 -280 0
20 5 14 -279 281 0
20 5 14 -279 -281 0
-16 19 -13 282 283 0
-16 19 -13 282 -283 0
-16 19 -13 -282 284 0
-16 19 -13 -282 -284 0
-7 -1 16 285 286 0
-7 -1 16 285 -286 0
-7 -1 16 -285 287 0
-7 -1 16 -285 -287 0
17 4 16 288 289 0
17 4 16 288 -289 0
17 4 16 -288 290 0
17 4 16 -288 -290 0
16 14 -18 291 292 0
16 14 -18 291 -292 0
16 14 -18 -291 293 0
16 14 -18 -291 -293 0
294 295 297 301 309 0
294 295 297 301 -309 0
294 295 297 -301 310 0
294 295 297 -301 -310 0
294 295 -297 302 311 0
294 295 -297 302 -311 0
294 295 -297 -302 312 0
294 295 -297 -302 -312 0
294 -295 298 303 313 0
294 -295 298 303 -313 0
294 -295 298 -303 314 0
294 -295 298 -303 -314 0
294 -295 -298 304 315 0
294 -295 -298 304 -315 0
294 -295 -298 -304 316 0
294 -295 -298 -304 -316 0
-294 296 299 305 317 0
-294 296 299 305 -317 0
-294 296 299 -305 318 0
-294 296 299 -305 -318 0
-294 296 -299 306 319 0
-294 296 -299 306 -319 0
-294 296 -299 -306 320 0
-294 296 -299 -306 -320 0
-294 -296 300 307 321 0
-294 -296 300 307 -321 0
-294 -296 300 -307 322 0
-294 -296 300 -307 -322 0
-294 -296 -300 308 323 0
-294 -296 -300 308 -323 0
-294 -296 -300 -308 324 0
-294 -296 -300 -308 -324 0
325 326 328 332 340 0
325 326 328 332 -340 0
325 326 328 -332 341 0
325 326 328 -332 -341 0
325 326 -328 333 342 0
325 326 -328 333 -342 0
325 326 -328 -333 343 0
325 326 -328 -333 -343 0
325 -326 329 334 344 0
325 -326 329 334 -344 0
325 -326 329 -334 345 0
325 -326 329 -334 -345 0
325 -326 -329 335 346 0
325 -326 -329 335 -346 0
325 -326 -329 -335 347 0
325 -326 -329 -335 -347 0
-325 327 330 336 348 0
-325 327 330 336 -348 0
-325 327 330 -336 349 0
-325 327 330 -336 -349 0
-325 327 -330 337 350 0
-325 327 -330 337 -350 0
-325 327 -330 -337 351 0
-325 327 -330 -337 -351 0
-325 -327 331 338 352 0
-325 -327 331 338 -352 0
-325 -327 331 -338 353 0
-325 -327 331 -338 -353 0
-325 -327 -331 339 354 0
-325 -327 -331 339 -354 0
-325 -327 -331 -339 355 0
-325 -327 -331 -339 -355 0
356 357 359 363 371 0
356 357 359 363 -371 0
356 357 359 -363 372 0
356 357 359 -363 -372 0
356 357 -359 364 373 0
356 357 -359 364 -373 0
356 357 -359 -364 374 0
356 357 -359 -364 -374 0
356 -357 360 365 375 0
356 -357 360 365 -375 0
356 -357 360 -365 376 0
356 -357 360 -365 -376 0
356 -357 -360 366 377 0
356 -357 -360 366 -377 0
356 -357 -360 -366 378 0
356 -357 -360 -366 -378 0
-356 358 361 367 379 0
-356 358 361 367 -379 0
-356 358 361 -367 380 0
-356 358 361 -367 -380 0
-356 358 -361 368 381 0
-356 358 -361 368 -381 0
-356 358 -361 -368 382 0
-356 358 -361 -368 -382 0
-356 -358 362 369 383 0
-356 -358 362 369 -383 0
-356 -358 362 -369 384 0
-356 -358 362 -369 -384 0
-356 -358 -362 370 385 0
-356 -358 -362 370 -385 0
-356 -358 -362 -370 386 0
-356 -358 -362 -370 -386 0

